\ SCIP STATISTICS
\   Problem name     : TSP
\   Variables        : 36 (36 binary, 0 integer, 0 implicit integer, 0 continuous)
\   Constraints      : 68
Minimize
 Obj: +9999 x(0,0) +21 x(0,1) +17 x(0,2) +19 x(0,3) +21 x(0,4) +22 x(0,5) +26 x(1,0) +9999 x(1,1) +18 x(1,2)
      +27 x(1,3) +27 x(1,4) +26 x(1,5) +20 x(2,0) +25 x(2,1) +9999 x(2,2) +27 x(2,3) +26 x(2,4) +24 x(2,5)
      +18 x(3,0) +20 x(3,1) +15 x(3,2) +9999 x(3,3) +17 x(3,4) +19 x(3,5) +24 x(4,0) +25 x(4,1) +15 x(4,2)
      +26 x(4,3) +9999 x(4,4) +25 x(4,5) +18 x(5,0) +18 x(5,1) +27 x(5,2) +21 x(5,3) +25 x(5,4) +9999 x(5,5)
Subject to
 c1: +1 x(0,0) +1 x(0,1) +1 x(0,2) +1 x(0,3) +1 x(0,4) +1 x(0,5) = +1
 c2: +1 x(1,0) +1 x(1,1) +1 x(1,2) +1 x(1,3) +1 x(1,4) +1 x(1,5) = +1
 c3: +1 x(2,0) +1 x(2,1) +1 x(2,2) +1 x(2,3) +1 x(2,4) +1 x(2,5) = +1
 c4: +1 x(3,0) +1 x(3,1) +1 x(3,2) +1 x(3,3) +1 x(3,4) +1 x(3,5) = +1
 c5: +1 x(4,0) +1 x(4,1) +1 x(4,2) +1 x(4,3) +1 x(4,4) +1 x(4,5) = +1
 c6: +1 x(5,0) +1 x(5,1) +1 x(5,2) +1 x(5,3) +1 x(5,4) +1 x(5,5) = +1
 c7: +1 x(0,0) +1 x(1,0) +1 x(2,0) +1 x(3,0) +1 x(4,0) +1 x(5,0) = +1
 c8: +1 x(0,1) +1 x(1,1) +1 x(2,1) +1 x(3,1) +1 x(4,1) +1 x(5,1) = +1
 c9: +1 x(0,2) +1 x(1,2) +1 x(2,2) +1 x(3,2) +1 x(4,2) +1 x(5,2) = +1
 c10: +1 x(0,3) +1 x(1,3) +1 x(2,3) +1 x(3,3) +1 x(4,3) +1 x(5,3) = +1
 c11: +1 x(0,4) +1 x(1,4) +1 x(2,4) +1 x(3,4) +1 x(4,4) +1 x(5,4) = +1
 c12: +1 x(0,5) +1 x(1,5) +1 x(2,5) +1 x(3,5) +1 x(4,5) +1 x(5,5) = +1
 c13: +1 x(0,1) +1 x(1,0) <= +1
 c14: +1 x(0,2) +1 x(2,0) <= +1
 c15: +1 x(0,3) +1 x(3,0) <= +1
 c16: +1 x(0,4) +1 x(4,0) <= +1
 c17: +1 x(0,5) +1 x(5,0) <= +1
 c18: +1 x(1,2) +1 x(2,1) <= +1
 c19: +1 x(1,3) +1 x(3,1) <= +1
 c20: +1 x(1,4) +1 x(4,1) <= +1
 c21: +1 x(1,5) +1 x(5,1) <= +1
 c22: +1 x(2,3) +1 x(3,2) <= +1
 c23: +1 x(2,4) +1 x(4,2) <= +1
 c24: +1 x(2,5) +1 x(5,2) <= +1
 c25: +1 x(3,4) +1 x(4,3) <= +1
 c26: +1 x(3,5) +1 x(5,3) <= +1
 c27: +1 x(4,5) +1 x(5,4) <= +1
 c28: +1 x(0,1) +1 x(0,2) +1 x(1,0) +1 x(1,2) +1 x(2,0) +1 x(2,1) <= +2
 c29: +1 x(0,1) +1 x(0,3) +1 x(1,0) +1 x(1,3) +1 x(3,0) +1 x(3,1) <= +2
 c30: +1 x(0,1) +1 x(0,4) +1 x(1,0) +1 x(1,4) +1 x(4,0) +1 x(4,1) <= +2
 c31: +1 x(0,1) +1 x(0,5) +1 x(1,0) +1 x(1,5) +1 x(5,0) +1 x(5,1) <= +2
 c32: +1 x(0,2) +1 x(0,3) +1 x(2,0) +1 x(2,3) +1 x(3,0) +1 x(3,2) <= +2
 c33: +1 x(0,2) +1 x(0,4) +1 x(2,0) +1 x(2,4) +1 x(4,0) +1 x(4,2) <= +2
 c34: +1 x(0,2) +1 x(0,5) +1 x(2,0) +1 x(2,5) +1 x(5,0) +1 x(5,2) <= +2
 c35: +1 x(0,3) +1 x(0,4) +1 x(3,0) +1 x(3,4) +1 x(4,0) +1 x(4,3) <= +2
 c36: +1 x(0,3) +1 x(0,5) +1 x(3,0) +1 x(3,5) +1 x(5,0) +1 x(5,3) <= +2
 c37: +1 x(0,4) +1 x(0,5) +1 x(4,0) +1 x(4,5) +1 x(5,0) +1 x(5,4) <= +2
 c38: +1 x(1,2) +1 x(1,3) +1 x(2,1) +1 x(2,3) +1 x(3,1) +1 x(3,2) <= +2
 c39: +1 x(1,2) +1 x(1,4) +1 x(2,1) +1 x(2,4) +1 x(4,1) +1 x(4,2) <= +2
 c40: +1 x(1,2) +1 x(1,5) +1 x(2,1) +1 x(2,5) +1 x(5,1) +1 x(5,2) <= +2
 c41: +1 x(1,3) +1 x(1,4) +1 x(3,1) +1 x(3,4) +1 x(4,1) +1 x(4,3) <= +2
 c42: +1 x(1,3) +1 x(1,5) +1 x(3,1) +1 x(3,5) +1 x(5,1) +1 x(5,3) <= +2
 c43: +1 x(1,4) +1 x(1,5) +1 x(4,1) +1 x(4,5) +1 x(5,1) +1 x(5,4) <= +2
 c44: +1 x(2,3) +1 x(2,4) +1 x(3,2) +1 x(3,4) +1 x(4,2) +1 x(4,3) <= +2
 c45: +1 x(2,3) +1 x(2,5) +1 x(3,2) +1 x(3,5) +1 x(5,2) +1 x(5,3) <= +2
 c46: +1 x(2,4) +1 x(2,5) +1 x(4,2) +1 x(4,5) +1 x(5,2) +1 x(5,4) <= +2
 c47: +1 x(3,4) +1 x(3,5) +1 x(4,3) +1 x(4,5) +1 x(5,3) +1 x(5,4) <= +2
 c48: +1 x(0,1) +1 x(0,2) +1 x(0,3) +1 x(1,0) +1 x(1,2) +1 x(1,3) +1 x(2,0) +1 x(2,1) +1 x(2,3) +1 x(3,0)
  +1 x(3,1) +1 x(3,2) <= +3
 c49: +1 x(0,1) +1 x(0,2) +1 x(0,4) +1 x(1,0) +1 x(1,2) +1 x(1,4) +1 x(2,0) +1 x(2,1) +1 x(2,4) +1 x(4,0)
  +1 x(4,1) +1 x(4,2) <= +3
 c50: +1 x(0,1) +1 x(0,2) +1 x(0,5) +1 x(1,0) +1 x(1,2) +1 x(1,5) +1 x(2,0) +1 x(2,1) +1 x(2,5) +1 x(5,0)
  +1 x(5,1) +1 x(5,2) <= +3
 c51: +1 x(0,1) +1 x(0,3) +1 x(0,4) +1 x(1,0) +1 x(1,3) +1 x(1,4) +1 x(3,0) +1 x(3,1) +1 x(3,4) +1 x(4,0)
  +1 x(4,1) +1 x(4,3) <= +3
 c52: +1 x(0,1) +1 x(0,3) +1 x(0,5) +1 x(1,0) +1 x(1,3) +1 x(1,5) +1 x(3,0) +1 x(3,1) +1 x(3,5) +1 x(5,0)
  +1 x(5,1) +1 x(5,3) <= +3
 c53: +1 x(0,1) +1 x(0,4) +1 x(0,5) +1 x(1,0) +1 x(1,4) +1 x(1,5) +1 x(4,0) +1 x(4,1) +1 x(4,5) +1 x(5,0)
  +1 x(5,1) +1 x(5,4) <= +3
 c54: +1 x(0,2) +1 x(0,3) +1 x(0,4) +1 x(2,0) +1 x(2,3) +1 x(2,4) +1 x(3,0) +1 x(3,2) +1 x(3,4) +1 x(4,0)
  +1 x(4,2) +1 x(4,3) <= +3
 c55: +1 x(0,2) +1 x(0,3) +1 x(0,5) +1 x(2,0) +1 x(2,3) +1 x(2,5) +1 x(3,0) +1 x(3,2) +1 x(3,5) +1 x(5,0)
  +1 x(5,2) +1 x(5,3) <= +3
 c56: +1 x(0,2) +1 x(0,4) +1 x(0,5) +1 x(2,0) +1 x(2,4) +1 x(2,5) +1 x(4,0) +1 x(4,2) +1 x(4,5) +1 x(5,0)
  +1 x(5,2) +1 x(5,4) <= +3
 c57: +1 x(0,3) +1 x(0,4) +1 x(0,5) +1 x(3,0) +1 x(3,4) +1 x(3,5) +1 x(4,0) +1 x(4,3) +1 x(4,5) +1 x(5,0)
  +1 x(5,3) +1 x(5,4) <= +3
 c58: +1 x(1,2) +1 x(1,3) +1 x(1,4) +1 x(2,1) +1 x(2,3) +1 x(2,4) +1 x(3,1) +1 x(3,2) +1 x(3,4) +1 x(4,1)
  +1 x(4,2) +1 x(4,3) <= +3
 c59: +1 x(1,2) +1 x(1,3) +1 x(1,5) +1 x(2,1) +1 x(2,3) +1 x(2,5) +1 x(3,1) +1 x(3,2) +1 x(3,5) +1 x(5,1)
  +1 x(5,2) +1 x(5,3) <= +3
 c60: +1 x(1,2) +1 x(1,4) +1 x(1,5) +1 x(2,1) +1 x(2,4) +1 x(2,5) +1 x(4,1) +1 x(4,2) +1 x(4,5) +1 x(5,1)
  +1 x(5,2) +1 x(5,4) <= +3
 c61: +1 x(1,3) +1 x(1,4) +1 x(1,5) +1 x(3,1) +1 x(3,4) +1 x(3,5) +1 x(4,1) +1 x(4,3) +1 x(4,5) +1 x(5,1)
  +1 x(5,3) +1 x(5,4) <= +3
 c62: +1 x(2,3) +1 x(2,4) +1 x(2,5) +1 x(3,2) +1 x(3,4) +1 x(3,5) +1 x(4,2) +1 x(4,3) +1 x(4,5) +1 x(5,2)
  +1 x(5,3) +1 x(5,4) <= +3
 c63: +1 x(0,1) +1 x(0,2) +1 x(0,3) +1 x(0,4) +1 x(1,0) +1 x(1,2) +1 x(1,3) +1 x(1,4) +1 x(2,0) +1 x(2,1)
  +1 x(2,3) +1 x(2,4) +1 x(3,0) +1 x(3,1) +1 x(3,2) +1 x(3,4) +1 x(4,0) +1 x(4,1) +1 x(4,2) +1 x(4,3)
  <= +4
 c64: +1 x(0,1) +1 x(0,2) +1 x(0,3) +1 x(0,5) +1 x(1,0) +1 x(1,2) +1 x(1,3) +1 x(1,5) +1 x(2,0) +1 x(2,1)
  +1 x(2,3) +1 x(2,5) +1 x(3,0) +1 x(3,1) +1 x(3,2) +1 x(3,5) +1 x(5,0) +1 x(5,1) +1 x(5,2) +1 x(5,3)
  <= +4
 c65: +1 x(0,1) +1 x(0,2) +1 x(0,4) +1 x(0,5) +1 x(1,0) +1 x(1,2) +1 x(1,4) +1 x(1,5) +1 x(2,0) +1 x(2,1)
  +1 x(2,4) +1 x(2,5) +1 x(4,0) +1 x(4,1) +1 x(4,2) +1 x(4,5) +1 x(5,0) +1 x(5,1) +1 x(5,2) +1 x(5,4)
  <= +4
 c66: +1 x(0,1) +1 x(0,3) +1 x(0,4) +1 x(0,5) +1 x(1,0) +1 x(1,3) +1 x(1,4) +1 x(1,5) +1 x(3,0) +1 x(3,1)
  +1 x(3,4) +1 x(3,5) +1 x(4,0) +1 x(4,1) +1 x(4,3) +1 x(4,5) +1 x(5,0) +1 x(5,1) +1 x(5,3) +1 x(5,4)
  <= +4
 c67: +1 x(0,2) +1 x(0,3) +1 x(0,4) +1 x(0,5) +1 x(2,0) +1 x(2,3) +1 x(2,4) +1 x(2,5) +1 x(3,0) +1 x(3,2)
  +1 x(3,4) +1 x(3,5) +1 x(4,0) +1 x(4,2) +1 x(4,3) +1 x(4,5) +1 x(5,0) +1 x(5,2) +1 x(5,3) +1 x(5,4)
  <= +4
 c68: +1 x(1,2) +1 x(1,3) +1 x(1,4) +1 x(1,5) +1 x(2,1) +1 x(2,3) +1 x(2,4) +1 x(2,5) +1 x(3,1) +1 x(3,2)
  +1 x(3,4) +1 x(3,5) +1 x(4,1) +1 x(4,2) +1 x(4,3) +1 x(4,5) +1 x(5,1) +1 x(5,2) +1 x(5,3) +1 x(5,4)
  <= +4
Bounds
 0 <= x(0,0) <= 0
 0 <= x(0,1) <= 1
 0 <= x(0,2) <= 1
 0 <= x(0,3) <= 1
 0 <= x(0,4) <= 1
 0 <= x(0,5) <= 1
 0 <= x(1,0) <= 1
 0 <= x(1,1) <= 0
 0 <= x(1,2) <= 1
 0 <= x(1,3) <= 1
 0 <= x(1,4) <= 1
 0 <= x(1,5) <= 1
 0 <= x(2,0) <= 1
 0 <= x(2,1) <= 1
 0 <= x(2,2) <= 0
 0 <= x(2,3) <= 1
 0 <= x(2,4) <= 1
 0 <= x(2,5) <= 1
 0 <= x(3,0) <= 1
 0 <= x(3,1) <= 1
 0 <= x(3,2) <= 1
 0 <= x(3,3) <= 0
 0 <= x(3,4) <= 1
 0 <= x(3,5) <= 1
 0 <= x(4,0) <= 1
 0 <= x(4,1) <= 1
 0 <= x(4,2) <= 1
 0 <= x(4,3) <= 1
 0 <= x(4,4) <= 0
 0 <= x(4,5) <= 1
 0 <= x(5,0) <= 1
 0 <= x(5,1) <= 1
 0 <= x(5,2) <= 1
 0 <= x(5,3) <= 1
 0 <= x(5,4) <= 1
 0 <= x(5,5) <= 0
Binaries
 x(0,0) x(0,1) x(0,2) x(0,3) x(0,4) x(0,5) x(1,0) x(1,1) x(1,2) x(1,3) x(1,4) x(1,5) x(2,0) x(2,1) x(2,2)
 x(2,3) x(2,4) x(2,5) x(3,0) x(3,1) x(3,2) x(3,3) x(3,4) x(3,5) x(4,0) x(4,1) x(4,2) x(4,3) x(4,4) x(4,5)
 x(5,0) x(5,1) x(5,2) x(5,3) x(5,4) x(5,5)
End
